N = 25;
MinK = 3;
Capacity = 1000;

Scale = 10;
DistanceRoundingMode = Floor;
X = array1d(0..N, [40, 25, 22, 22, 20, 20, 18, 15, 15, 10, 10, 8, 8, 5, 5, 2, 0, 0, 44, 42, 42, 40, 40, 38, 38, 35]);
Y = array1d(0..N, [50, 85, 75, 85, 80, 85, 75, 75, 80, 35, 40, 40, 45, 35, 45, 40, 40, 45, 5, 10, 15, 5, 15, 5, 15, 5]);

Demands = array1d(1..N, [20, 30, 10, 40, 20, 20, 20, 10, 20, 30, 40, 20, 10, 10, 20, 20, 20, 20, 40, 10, 10, 40, 30, 10, 20]);

ServiceTimes = array1d(1..N, [10, 10, 10, 10, 10, 10, 10, 10, 10, 10, 10, 10, 10, 10, 10, 10, 10, 10, 10, 10, 10, 10, 10, 10, 10]);

TimeWindows = array2d(1..2, 0..N, [|
    0, 673, 152, 471, 644,  73, 388, 300, 367, 371, 519, 195, 223, 653,  35, 174, 255, 703, 335, 254, 537, 215, 375, 201, 681, 784 |
  960, 793, 272, 591, 764, 193, 508, 420, 487, 491, 639, 315, 343, 773, 155, 294, 375, 823, 455, 374, 657, 335, 495, 321, 801, 904
|]);
